proyfinal/src/viki/013/experimentInOfficeAgust.take6.output/2e1b4c2e-b7d3-44fd-8b08-11e56faf1f59.als.dat
{'cnf.clauses': '118081',
 'cnf.totvars': '69608',
 'conflict literals': '50',
 'conflicts': '23',
 'decisions': '6284',
 'memused.mb': '16.71',
 'outcome': 'UNSAT',
 'propagations': '31018',
 'restarts': '1',
 'solver.msecs': 35,
 'task.msecs': 102}
