proyfinal/src/viki/013/experimentInOfficeAgust.take6.output/2e1b4c2e-b7d3-44fd-8b08-11e56faf1f59.als.out
Reading from standard input... Use '--help' for help.
============================[ Problem Statistics ]=============================
|                                                                             |
|  Number of variables:         69608                                         |
|  Number of clauses:          118081                                         |
|  Parse time:                   0.03 s                                       |
|                                                                             |
============================[ Search Statistics ]==============================
| Conflicts |          ORIGINAL         |          LEARNT          | Progress |
|           |    Vars  Clauses Literals |    Limit  Clauses Lit/Cl |          |
===============================================================================
===============================================================================
restarts              : 1
conflicts             : 23             (655 /sec)
decisions             : 6284           (0.00 % random) (178991 /sec)
propagations          : 31018          (883502 /sec)
conflict literals     : 50             (0.00 % deleted)
Memory used           : 16.71 MB
CPU time              : 0.035108 s

UNSATISFIABLE
